JOBS = 1..4;
MACHINES = 1..3;
SPEED = 3;
time = array3d(JOBS,MACHINES,1..SPEED,[36,8,6,210,51,37,118,29,21,167,40,30,63,15,11,46,11,8,249,61,44,129,31,23,110,27,19,254,62,45,52,12,9,57,14,10]);
energy = array3d(JOBS,MACHINES,1..SPEED,[69,92,94,12,60,69,30,74,81,18,67,74,53,86,89,63,89,92,8,54,64,27,73,79,33,76,82,7,53,63,59,88,91,56,86,90]);
precedence = array2d(JOBS,MACHINES,[2,0,1,0,2,1,2,1,0,0,2,1]);
ME = 1;
TE = 146;
st_old = array2d(JOBS,MACHINES,[313,0,110,0,274,228,239,110,0,167,337,274]);
SpeedScaling = array2d(JOBS,MACHINES,[1,2,1,1,1,1,2,1,1,2,2,1]);
